
Gurobi 10.0.0 (win64) logging started Thu Jun 13 14:38:20 2024

Set parameter LogFile to value "C:\Users\ealvarezq\Documents\GitHub\Comillas\Models\JointResearch\05. Models\06.Benchmarking\K.Investments_per_hour\RTS24_mod2_ByStages_nc200/openStarNet_RTS24_mod2_ByStages_nc200.log"
Set parameter Method to value 2
Set parameter MIPFocus to value 1
Set parameter Presolve to value 2
Set parameter RINS to value 100
Set parameter MIPGap to value 0.01
Set parameter Threads to value 9
Set parameter TimeLimit to value 259200
Set parameter IterationLimit to value 760000000
Gurobi Optimizer version 10.0.0 build v10.0.0rc2 (win64)

CPU model: Intel(R) Core(TM) i7-8700 CPU @ 3.20GHz, instruction set [SSE2|AVX|AVX2]
Thread count: 6 physical cores, 12 logical processors, using up to 9 threads

Optimize a model with 71003 rows, 47828 columns and 193265 nonzeros
Model fingerprint: 0x41f05b2c
Variable types: 47807 continuous, 21 integer (21 binary)
Coefficient statistics:
  Matrix range     [1e-04, 1e+03]
  Objective range  [1e+00, 1e+00]
  Bounds range     [4e-05, 3e+00]
  RHS range        [4e-05, 3e+00]
Presolve removed 42248 rows and 24196 columns
Presolve time: 0.29s
Presolved: 28755 rows, 23632 columns, 103753 nonzeros
Variable types: 23611 continuous, 21 integer (21 binary)
Root relaxation presolved: 28755 rows, 23632 columns, 103753 nonzeros

Root barrier log...

Ordering time: 0.01s

Barrier statistics:
 Dense cols : 21
 AA' NZ     : 1.927e+05
 Factor NZ  : 5.357e+05 (roughly 26 MB of memory)
 Factor Ops : 1.192e+07 (less than 1 second per iteration)
 Threads    : 8

                  Objective                Residual
Iter       Primal          Dual         Primal    Dual     Compl     Time
   0   6.71440267e+05 -5.50965076e+08  5.37e+00 5.71e+02  2.33e+04     1s
   1   1.03671019e+05 -1.43690769e+08  7.18e-01 6.55e-08  3.27e+03     1s
   2   3.98417583e+04 -3.15729998e+07  1.79e-01 8.05e-09  5.95e+02     1s
   3   1.98548198e+04 -3.17818900e+06  5.46e-03 3.06e-09  4.85e+01     1s
   4   1.35016353e+04 -1.95445890e+05  5.28e-05 3.26e-10  3.12e+00     1s
   5   5.74461484e+03 -5.73532366e+04  1.39e-06 6.41e-11  9.43e-01     1s
   6   1.84137974e+03 -1.65283455e+04  2.05e-07 1.02e-11  2.74e-01     1s
   7   5.75492265e+02 -5.31345955e+03  3.19e-08 4.95e-12  8.80e-02     1s
   8   2.35109149e+02 -1.04568578e+03  2.22e-09 2.68e-12  1.91e-02     1s
   9   1.48632467e+02 -2.65912176e+02  6.06e-10 3.83e-12  6.19e-03     1s
  10   1.03052448e+02 -6.58677990e+01  2.58e-10 2.88e-12  2.52e-03     1s
  11   8.18190241e+01 -1.68419696e+00  1.39e-10 2.95e-12  1.25e-03     1s
  12   6.89647844e+01  2.58756096e+01  7.50e-11 3.75e-12  6.44e-04     1s
  13   6.35154292e+01  3.39560038e+01  4.96e-11 3.40e-12  4.42e-04     1s
  14   5.94711141e+01  4.20617061e+01  3.12e-11 1.27e-12  2.60e-04     1s
  15   5.69578380e+01  4.42878858e+01  1.97e-11 3.11e-12  1.89e-04     1s
  16   5.51919855e+01  4.85836085e+01  1.16e-11 1.46e-12  9.87e-05     1s
  17   5.44932233e+01  5.01276318e+01  8.40e-12 1.16e-12  6.52e-05     1s
  18   5.37495938e+01  5.04475342e+01  6.36e-12 3.11e-12  4.93e-05     1s
  19   5.34268468e+01  5.13493305e+01  1.50e-11 1.96e-12  3.10e-05     1s
  20   5.32511502e+01  5.18317781e+01  1.26e-11 2.20e-12  2.12e-05     1s
  21   5.30292589e+01  5.20027478e+01  1.70e-11 2.37e-12  1.53e-05     1s
  22   5.29491659e+01  5.21906769e+01  2.88e-11 4.45e-12  1.13e-05     1s
  23   5.28927914e+01  5.22635083e+01  2.42e-11 2.51e-12  9.40e-06     1s
  24   5.28666802e+01  5.24653855e+01  1.66e-11 9.60e-13  5.99e-06     1s
  25   5.28098125e+01  5.25384604e+01  1.58e-11 1.18e-12  4.05e-06     1s
  26   5.28036420e+01  5.26925595e+01  2.44e-11 1.98e-12  1.66e-06     1s
  27   5.27901290e+01  5.26995541e+01  3.22e-11 1.29e-12  1.35e-06     1s
  28   5.27819949e+01  5.27308082e+01  5.19e-11 1.32e-12  7.65e-07     1s
  29   5.27774901e+01  5.27560791e+01  9.66e-11 1.79e-12  3.20e-07     1s
  30   5.27758828e+01  5.27616156e+01  1.09e-10 1.00e-12  2.13e-07     1s
  31   5.27744796e+01  5.27704343e+01  7.58e-11 1.33e-12  6.04e-08     1s
  32   5.27741387e+01  5.27726247e+01  1.09e-10 1.37e-12  2.26e-08     1s
  33   5.27740306e+01  5.27737249e+01  9.64e-11 1.33e-12  4.57e-09     1s
  34   5.27740098e+01  5.27739124e+01  5.06e-11 2.90e-12  1.45e-09     1s
  35   5.27740021e+01  5.27739560e+01  4.37e-11 3.72e-12  6.87e-10     1s
  36   5.27739900e+01  5.27739841e+01  5.46e-10 3.40e-12  8.75e-11     1s
  37   5.27739882e+01  5.27739876e+01  5.64e-09 2.82e-12  8.85e-12     1s
  38   5.27739881e+01  5.27739881e+01  5.24e-10 3.48e-12  5.33e-14     1s

Barrier solved model in 38 iterations and 1.12 seconds (0.85 work units)
Optimal objective 5.27739881e+01


Root relaxation: objective 5.277399e+01, 3669 iterations, 0.96 seconds (0.72 work units)

    Nodes    |    Current Node    |     Objective Bounds      |     Work
 Expl Unexpl |  Obj  Depth IntInf | Incumbent    BestBd   Gap | It/Node Time

     0     0   52.77399    0   18          -   52.77399      -     -    1s
H    0     0                     104.0572347   52.77399  49.3%     -    2s
     0     0   54.07222    0   16  104.05723   54.07222  48.0%     -    4s
H    0     0                      99.9224208   54.07222  45.9%     -    4s
     0     0   54.12305    0   14   99.92242   54.12305  45.8%     -    4s
     0     0   54.13861    0   14   99.92242   54.13861  45.8%     -    4s
     0     0   54.15986    0   14   99.92242   54.15986  45.8%     -    4s
     0     0   54.17379    0   14   99.92242   54.17379  45.8%     -    5s
H    0     0                      93.6223432   54.23048  42.1%     -    5s
     0     0   54.23048    0   14   93.62234   54.23048  42.1%     -    5s
     0     0   54.25799    0   14   93.62234   54.25799  42.0%     -    5s
     0     0   54.28391    0   15   93.62234   54.28391  42.0%     -    6s
     0     0   54.28391    0   15   93.62234   54.28391  42.0%     -    6s
H    0     0                      89.8682322   54.47662  39.4%     -    7s
     0     0   54.47662    0   15   89.86823   54.47662  39.4%     -    7s
     0     0   54.57242    0   16   89.86823   54.57242  39.3%     -    7s
     0     0   54.57999    0   16   89.86823   54.57999  39.3%     -    8s
     0     0   54.58641    0   16   89.86823   54.58641  39.3%     -    8s
     0     0   54.59008    0   16   89.86823   54.59008  39.3%     -    8s
     0     0   54.59055    0   16   89.86823   54.59055  39.3%     -    8s
     0     0   54.59059    0   16   89.86823   54.59059  39.3%     -    8s
     0     0   54.76572    0   14   89.86823   54.76572  39.1%     -    9s
     0     0   54.78376    0   14   89.86823   54.78376  39.0%     -    9s
     0     0   54.79712    0   11   89.86823   54.79712  39.0%     -   10s
H    0     0                      86.5491885   54.79962  36.7%     -   10s
     0     0   54.79962    0   11   86.54919   54.79962  36.7%     -   10s
     0     0   54.80010    0   11   86.54919   54.80010  36.7%     -   10s
     0     0   54.80021    0   11   86.54919   54.80021  36.7%     -   10s
     0     0   54.80106    0   11   86.54919   54.80106  36.7%     -   11s
     0     0   54.80106    0   11   86.54919   54.80106  36.7%     -   12s
H    0     0                      72.7158512   54.80106  24.6%     -   30s
     0     2   54.80106    0   11   72.71585   54.80106  24.6%     -   31s
     7    16   56.33090    3   16   72.71585   56.24924  22.6%  2629   36s
    24    34   57.38203    5   15   72.71585   56.42399  22.4%  1967   40s
H   30    34                      72.5360018   56.42399  22.2%  1814   40s
    51    58   60.21524    7   14   72.53600   57.40734  20.9%  1732   45s
    83    81   64.40066    9   12   72.53600   57.40734  20.9%  1643   51s
    94    90   67.11294   10   11   72.53600   57.40734  20.9%  1573   56s
   113   107   70.37919   11   10   72.53600   57.40734  20.9%  1511   60s
   156   120     cutoff   12        72.53600   57.46574  20.8%  1396   67s
   169   129   60.25880    7   14   72.53600   57.46574  20.8%  1430   70s
   199   144   66.86497    9   12   72.53600   57.46574  20.8%  1402  132s
   215   149     cutoff   10        72.53600   57.46574  20.8%  1403  136s
   238   147   69.95760   10   11   72.53600   57.46574  20.8%  1378  140s
   279   146   71.71769   10   11   72.53600   57.46574  20.8%  1373  147s
   299   142     cutoff   11        72.53600   58.35286  19.6%  1381  258s
   323   156   63.18524    5   10   72.53600   58.35286  19.6%  1374  264s
   349   161   67.60486    8   12   72.53600   58.35286  19.6%  1391  270s
   362   168   69.80183    9   11   72.53600   58.35286  19.6%  1381  276s
   411   168     cutoff    9        72.53600   60.93203  16.0%  1326  281s
   443   175     cutoff   12        72.53600   61.69169  15.0%  1326  285s
   476   191   65.77723    6   12   72.53600   61.69169  15.0%  1318  291s
   512   192   67.22712    8   11   72.53600   61.69169  15.0%  1298  296s
   573   197   70.05234   14    7   72.53600   61.84344  14.7%  1232  302s
   616   216   67.91581    7   13   72.53600   62.95489  13.2%  1230  307s
   655   233   70.44269   10   11   72.53600   62.95489  13.2%  1227  313s
   699   234   72.31568   12    9   72.53600   64.00171  11.8%  1216  405s
   732   257   68.58343    8   12   72.53600   64.00171  11.8%  1210  414s
   793   275     cutoff    8        72.53600   64.04108  11.7%  1192  478s
   867   291     cutoff   11        72.53600   64.11002  11.6%  1154  486s
   948   297     cutoff    8        72.53600   65.59339  9.57%  1131  494s
  1041   305   70.09055   13    8   72.53600   65.87365  9.18%  1093  509s
  1095   314     cutoff   14        72.53600   65.89485  9.16%  1076  602s
  1189   311     cutoff    9        72.53600   65.90371  9.14%  1050  615s
  1222   310     cutoff   10        72.53600   66.07874  8.90%  1044  628s
  1255   321   69.50198   12    8   72.53600   66.09301  8.88%  1040  640s
  1396   331     cutoff   11        72.53600   66.72392  8.01%  1007  695s
  1510   343   72.48910   13    8   72.53600   66.89916  7.77%   982  708s
  1701   364   70.48351   11    9   72.53600   67.28042  7.25%   940  722s
  1880   364   72.41759   16    5   72.53600   67.69210  6.68%   912  746s
  2060   367     cutoff   12        72.53600   68.47433  5.60%   884  760s
  2291   337   71.84544   13    8   72.53600   68.75209  5.22%   850  861s
  2458   328   72.02549   11    9   72.53600   68.92494  4.98%   832  877s
  2744   250     cutoff   17        72.53600   69.37513  4.36%   796  895s
  3068   185     cutoff   16        72.53600   70.18244  3.24%   759  921s
  3422     0   72.10271    7    6   72.53600   70.84590  2.33%   722  930s

Cutting planes:
  Implied bound: 319
  MIR: 1060
  Relax-and-lift: 177

Explored 3717 nodes (2567652 simplex iterations) in 930.89 seconds (1487.48 work units)
Thread count was 9 (of 12 available processors)

Solution count 7: 72.536 72.7159 86.5492 ... 104.057

Optimal solution found (tolerance 1.00e-02)
Best objective 7.253600176141e+01, best bound 7.253600176141e+01, gap 0.0000%

Gurobi 10.0.0 (win64) logging started Thu Jun 13 14:54:22 2024

Set parameter LogFile to value "C:\Users\ealvarezq\Documents\GitHub\Comillas\Models\JointResearch\05. Models\06.Benchmarking\K.Investments_per_hour\RTS24_mod2_ByStages_nc200/openStarNet_RTS24_mod2_ByStages_nc200.log"
Set parameter Method to value 2
Set parameter MIPFocus to value 1
Set parameter Presolve to value 2
Set parameter RINS to value 100
Set parameter MIPGap to value 0.01
Set parameter Threads to value 9
Set parameter TimeLimit to value 259200
Set parameter IterationLimit to value 760000000
Gurobi Optimizer version 10.0.0 build v10.0.0rc2 (win64)

CPU model: Intel(R) Core(TM) i7-8700 CPU @ 3.20GHz, instruction set [SSE2|AVX|AVX2]
Thread count: 6 physical cores, 12 logical processors, using up to 9 threads

Optimize a model with 71003 rows, 47807 columns and 176444 nonzeros
Model fingerprint: 0x4f6ed797
Coefficient statistics:
  Matrix range     [1e-04, 1e+03]
  Objective range  [1e+00, 1e+00]
  Bounds range     [4e-05, 3e+00]
  RHS range        [4e-05, 2e+01]
Presolve removed 59807 rows and 27677 columns
Presolve time: 0.09s
Presolved: 11196 rows, 20501 columns, 50510 nonzeros

Ordering time: 0.00s

Barrier statistics:
 AA' NZ     : 2.912e+04
 Factor NZ  : 1.097e+05 (roughly 11 MB of memory)
 Factor Ops : 1.599e+06 (less than 1 second per iteration)
 Threads    : 9

                  Objective                Residual
Iter       Primal          Dual         Primal    Dual     Compl     Time
   0   6.50884987e+06 -3.78723420e+08  5.22e+01 9.00e+02  1.75e+05     0s
   1   3.66195084e+05 -2.80662087e+08  2.67e+00 2.18e-11  1.54e+04     0s
   2   5.40963654e+04 -5.32373076e+07  3.12e-01 2.73e-11  1.98e+03     0s
   3   2.59138992e+04 -6.15270200e+06  2.93e-02 2.18e-11  1.90e+02     0s
   4   1.88454826e+04 -2.03595958e+06  1.33e-03 1.36e-11  5.76e+01     0s
   5   1.46252470e+04 -2.38795122e+05  4.82e-07 1.09e-11  7.06e+00     0s
   6   7.73793106e+03 -6.41919356e+04  1.35e-08 7.28e-12  2.00e+00     0s
   7   2.90968971e+03 -1.53986515e+04  2.01e-09 7.28e-12  5.10e-01     0s
   8   9.21292936e+02 -3.99880902e+03  5.11e-10 2.97e-12  1.37e-01     0s
   9   3.01960884e+02 -7.60459218e+02  6.99e-11 3.49e-12  2.96e-02     0s
  10   1.72190423e+02 -1.72633097e+02  2.09e-11 2.87e-12  9.60e-03     0s
  11   1.17747491e+02 -3.21455990e+01  7.72e-12 4.58e-12  4.17e-03     0s
  12   9.87333633e+01  2.77092381e+01  4.13e-12 3.54e-12  1.98e-03     0s
  13   8.40657214e+01  5.63401786e+01  1.62e-11 3.63e-12  7.72e-04     0s
  14   7.77738683e+01  6.60808525e+01  2.76e-11 7.49e-12  3.26e-04     0s
  15   7.48434024e+01  7.02522067e+01  1.25e-10 5.30e-12  1.28e-04     0s
  16   7.30991095e+01  7.18588860e+01  1.88e-10 3.20e-12  3.45e-05     0s
  17   7.27154969e+01  7.22685016e+01  8.29e-11 5.02e-12  1.24e-05     0s
  18   7.25794511e+01  7.25055962e+01  8.08e-11 5.70e-12  2.06e-06     0s
  19   7.25392062e+01  7.25327981e+01  3.65e-11 4.94e-12  1.78e-07     0s
  20   7.25361122e+01  7.25359250e+01  8.84e-10 4.36e-12  5.21e-09     0s
  21   7.25360185e+01  7.25360014e+01  8.88e-10 3.56e-12  4.77e-10     0s
  22   7.25360018e+01  7.25360017e+01  4.36e-09 3.02e-12  1.43e-12     0s
  23   7.25360018e+01  7.25360018e+01  6.16e-12 3.64e-12  9.41e-18     0s

Barrier solved model in 23 iterations and 0.26 seconds (0.23 work units)
Optimal objective 7.25360018e+01

Crossover log...

    2330 DPushes remaining with DInf 0.0000000e+00                 0s
       0 DPushes remaining with DInf 0.0000000e+00                 0s

     602 PPushes remaining with PInf 0.0000000e+00                 0s
       0 PPushes remaining with PInf 0.0000000e+00                 0s

  Push phase complete: Pinf 0.0000000e+00, Dinf 2.1126995e-13      0s

Iteration    Objective       Primal Inf.    Dual Inf.      Time
     664    7.2536002e+01   0.000000e+00   0.000000e+00      0s

Use crossover to convert LP symmetric solution to basic solution...
Crossover log...

       0 DPushes remaining with DInf 0.0000000e+00                 0s

     346 PPushes remaining with PInf 0.0000000e+00                 0s
       0 PPushes remaining with PInf 0.0000000e+00                 0s

  Push phase complete: Pinf 0.0000000e+00, Dinf 2.6136382e-13      0s

Iteration    Objective       Primal Inf.    Dual Inf.      Time
    1081    7.2536002e+01   0.000000e+00   0.000000e+00      0s

Solved in 1081 iterations and 0.41 seconds (0.29 work units)
Optimal objective  7.253600176e+01
